 &inputpp
    prefix  = 'solute'
    outdir  = "./solute",
    filplot = 'tmp'
    plot_num= 11
 /
 &plot
    nfile = 1
    filepp(1) = 'tmp'
    weight(1) = 1.0
    iflag = 3
    output_format = 6
    fileout = 'solute.cube'
 /
